treewidth/data/HortonGrap.gr
p tw 96 144
1 23
1 58
1 92
2 4
2 38
2 72
13 28
13 62
13 96
24 35
24 79
24 20
35 46
35 8
46 57
46 3
57 68
57 10
68 79
68 5
79 90
90 3
90 7
3 21
4 5
4 9
5 6
6 7
6 11
7 8
8 9
9 10
10 11
11 12
12 14
12 18
14 15
14 26
15 16
15 20
16 17
16 28
17 18
17 22
18 19
19 20
19 25
21 22
21 27
22 23
23 25
25 26
26 27
27 28
29 30
29 34
29 54
30 31
30 42
31 32
31 37
32 33
32 44
33 34
33 39
34 36
36 37
36 41
37 55
38 39
38 43
39 40
40 41
40 45
41 42
42 43
43 44
44 45
45 47
47 48
47 52
48 49
48 60
49 50
49 54
50 51
50 62
51 52
51 56
52 53
53 54
53 59
55 56
55 61
56 58
58 59
59 60
60 61
61 62
63 64
63 69
63 88
64 65
64 76
65 66
65 71
66 67
66 78
67 69
67 73
69 70
70 71
70 75
71 89
72 73
72 77
73 74
74 75
74 80
75 76
76 77
77 78
78 80
80 81
81 82
81 86
82 83
82 94
83 84
83 88
84 85
84 96
85 86
85 91
86 87
87 88
87 93
89 91
89 95
91 92
92 93
93 94
94 95
95 96
