treewidth/data/HortonGrap.td
c width = 6, time = 1.020332
s td 63 7 96
b 1 1 23 58 92
b 2 2 13 23 58 62 92 96
b 3 2 63 80 81 89 92 96
b 4 63 81 83 87 89 92 96
b 5 63 83 87 88
b 6 81 83 85 87 89 92 96
b 7 85 89 91 92
b 8 81 85 86 87
b 9 83 84 85 96
b 10 81 83 87 89 92 94 96
b 11 89 94 95 96
b 12 87 92 93 94
b 13 81 82 83 94
b 14 2 63 67 75 77 80 89
b 15 2 67 73 75 77 80
b 16 73 74 75 80
b 17 2 72 73 77
b 18 63 65 67 75 77 80 89
b 19 63 65 67 70 75 89
b 20 65 70 71 89
b 21 63 67 69 70
b 22 65 66 67 77 78 80
b 23 63 64 65 75 76 77
b 24 2 29 45 47 55 58 62
b 25 29 47 49 53 55 58 62
b 26 29 49 53 54
b 27 47 49 51 53 55 58 62
b 28 51 55 56 58
b 29 47 51 52 53
b 30 49 50 51 62
b 31 47 49 53 55 58 60 62
b 32 55 60 61 62
b 33 53 58 59 60
b 34 47 48 49 60
b 35 2 29 33 41 43 45 55
b 36 2 33 39 41 43 45
b 37 39 40 41 45
b 38 2 38 39 43
b 39 29 31 33 41 43 45 55
b 40 29 31 33 36 41 55
b 41 31 36 37 55
b 42 29 33 34 36
b 43 31 32 33 43 44 45
b 44 29 30 31 41 42 43
b 45 2 11 13 20 21 23 24
b 46 11 13 16 20 21 23 26
b 47 13 16 21 26 27 28
b 48 11 16 18 20 21 23 26
b 49 18 19 20 23 25 26
b 50 16 17 18 21 22 23
b 51 11 14 16 18 20 26
b 52 14 15 16 20
b 53 11 12 14 18
b 54 2 7 11 21 24 46 68
b 55 2 7 9 11 24 46 68
b 56 9 10 11 46 57 68
b 57 7 8 9 24 35 46
b 58 2 5 7 9 11 68
b 59 5 6 7 11
b 60 2 4 5 9
b 61 7 21 24 46 68 90
b 62 24 68 79 90
b 63 3 21 46 90
2 3
3 4
4 5
4 6
6 7
6 8
6 9
4 10
10 11
10 12
10 13
3 14
14 15
15 16
15 17
14 18
18 19
19 20
19 21
18 22
18 23
2 24
24 25
25 26
25 27
27 28
27 29
27 30
25 31
31 32
31 33
31 34
24 35
35 36
36 37
36 38
35 39
39 40
40 41
40 42
39 43
39 44
2 45
45 46
46 47
46 48
48 49
48 50
48 51
51 52
51 53
45 54
54 55
55 56
55 57
55 58
58 59
58 60
54 61
61 62
61 63
1 2
